StudentsNr = 10;
InstructorsNr = 23;
DaysNr = 2;
SlotsPerDay = 40;
AvailabilitySlotsLenght = 5;
RoomNr = 1;
ProgrammNr = 1;
DegreeNr = 2;
RolesNr = 3;
CoursesNr = 3;
InstructorsProgramm = [{1}, {1}, {1}, {1}, {1}, {1}, {1}, {1}, {1}, {1}, {1}, {1}, {1}, {1}, {1}, {1}, {1}, {1}, {1}, {1}, {1}, {1}, {1}];
InstructorRolesPerProgramm = [|{3, 4, 5, 6, 7, 8, 11, 13, 15, 17, 19, 21}, {1, 3, 5, 6, 7, 8, 10, 12, 13, 14, 20, 21, 23}, {1, 3, 6, 8, 12, 15, 18, 19, 20, 21, 23}|];
InstructorsAvailability = [|0, 1, 1, 1, 1, 1, 1, 1, 1, 1, 1, 1, 1, 1, 1, 1, |0, 0, 1, 0, 0, 1, 1, 1, 1, 1, 1, 1, 0, 1, 1, 1, |1, 0, 1, 1, 1, 1, 1, 1, 1, 1, 1, 1, 1, 0, 1, 1, |0, 1, 1, 1, 1, 1, 1, 0, 0, 1, 1, 1, 1, 1, 1, 1, |1, 1, 1, 1, 1, 1, 1, 0, 1, 1, 1, 1, 1, 1, 1, 0, |0, 1, 1, 0, 1, 1, 1, 1, 1, 1, 1, 1, 1, 1, 1, 1, |0, 0, 1, 0, 0, 1, 1, 1, 1, 1, 1, 0, 0, 0, 0, 1, |1, 1, 0, 1, 1, 1, 1, 0, 0, 1, 1, 1, 1, 1, 1, 1, |0, 0, 1, 1, 1, 1, 0, 1, 1, 1, 1, 1, 1, 1, 0, 0, |1, 1, 1, 1, 1, 0, 0, 1, 1, 1, 1, 1, 1, 1, 1, 1, |0, 1, 1, 1, 1, 1, 1, 1, 1, 1, 1, 0, 1, 1, 1, 1, |1, 1, 1, 1, 1, 1, 1, 1, 1, 1, 1, 1, 1, 1, 1, 1, |1, 1, 1, 1, 0, 0, 1, 1, 1, 1, 1, 1, 1, 0, 1, 1, |1, 1, 1, 1, 1, 1, 1, 1, 1, 1, 0, 0, 1, 1, 1, 0, |1, 0, 0, 0, 0, 1, 1, 1, 1, 1, 1, 1, 1, 0, 1, 1, |0, 0, 1, 1, 1, 0, 1, 0, 0, 1, 1, 1, 1, 1, 1, 1, |1, 0, 0, 1, 0, 1, 1, 0, 1, 1, 1, 1, 1, 1, 1, 0, |1, 1, 0, 1, 1, 0, 1, 1, 1, 1, 1, 1, 1, 1, 1, 1, |0, 0, 1, 1, 0, 1, 0, 0, 1, 0, 1, 1, 1, 0, 1, 1, |1, 1, 1, 1, 1, 0, 1, 1, 1, 1, 1, 1, 1, 0, 1, 1, |0, 1, 1, 1, 1, 1, 1, 1, 1, 1, 0, 0, 0, 0, 0, 1, |0, 0, 0, 0, 1, 1, 1, 0, 1, 1, 1, 1, 1, 1, 1, 1, |0, 0, 1, 1, 1, 1, 0, 1, 0, 1, 1, 1, 1, 1, 1, 1|];
StudentsProgramm = [1, 1, 1, 1, 1, 1, 1, 1, 1, 1];
StudentsDegree = [2, 1, 2, 1, 2, 2, 2, 1, 2, 1];
StudentsSupervisorId = [1, 17, 15, 11, 2, 18, 13, 18, 19, 4];
StudentsCourseIds = [{1, 2, 3}, {}, {1, 2, 3}, {}, {1, 2, 3}, {1, 2, 3}, {1, 2, 3}, {}, {1, 2, 3}, {}];
StudentsAvailability = [|1, 1, 1, 1, 1, 0, 1, 1, 1, 1, 1, 1, 0, 1, 0, 1, |1, 0, 1, 1, 1, 1, 1, 1, 1, 1, 1, 1, 1, 1, 1, 1, |1, 0, 1, 1, 1, 1, 1, 1, 1, 1, 1, 1, 1, 1, 1, 1, |1, 1, 1, 1, 1, 1, 1, 1, 1, 1, 1, 0, 1, 1, 1, 0, |1, 1, 1, 1, 1, 1, 1, 1, 1, 1, 1, 1, 1, 1, 1, 1, |0, 0, 1, 1, 1, 1, 1, 1, 1, 1, 1, 1, 1, 1, 1, 1, |1, 1, 1, 1, 1, 1, 0, 1, 1, 1, 1, 1, 1, 1, 1, 1, |0, 1, 1, 1, 1, 1, 1, 1, 1, 1, 1, 1, 1, 1, 1, 1, |1, 1, 1, 1, 1, 1, 1, 1, 1, 1, 1, 1, 1, 1, 1, 1, |0, 1, 0, 1, 1, 1, 1, 1, 1, 1, 1, 0, 0, 1, 1, 1|];
TheoryticalMinCard = [0, 0, 0, 0, 0, 0, 0, 0, 0, 0];
CoursesInstructorIds = [{2, 7, 8, 10, 14, 20, 22, 23}, {5, 6, 8, 9, 21}, {1, 2, 3, 5, 15, 18, 19, 20, 22, 23}];
RolesDemands = [3, 1, 7];
RolesContinuity = [3, 2];
ExamLen = [1, 1, 1, 1, 1, 1, 1, 1, 1, 1];
LunchTsMinLen = 1;
LunchStarts = [10..24, 57..66];
SupervisorAvailable = 0;
OptimalLunchLenght = [3, 1];
OptimalStartTs = [0, 0];
OptimalFinishTs = [1, 40];
MinimizeRooms = 100;
RolesSoftContinuity = [|1, 2, 3|0, 1, 3|];
SameDegreeInRoom = 20;
Mergeability = 1;
